# Node Net
2041   1
2640   1
3559   1
 34   1
 43   1
3591   2
480   2
1261   2
3300   2
900   2
3121   3
3578   3
 46   3
 59   3
1380   3
3553   4
  9   4
3560   4
901   4
2401   5
 45   5
1921   5
361   5
  3   6
 19   6
 14   6
3587   6
2761   7
  7   7
2280   7
3596   7
3061   8
721   8
3589   8
3585   9
3546   9
1500   9
 29  10
1620  10
1501  10
 31  11
3580  11
3480  12
121  12
3564  13
3574  13
3563  14
  1  14
1441  15
1381  15
3577  16
1560  16
3593  17
1140  17
